c ren 1 -> 1
c ren 2 -> 2
c ren 3 -> 3
c ren 4 -> 4
c ren 5 -> 5
c ren 6 -> 6
c ren 7 -> 7
c ren 8 -> 8
c ren 9 -> 9
c ren 10 -> 10
c ren 11 -> 11
c ren 12 -> 12
c ren 13 -> 13
c ren 14 -> 14
c ren 15 -> 15
c ren 16 -> 16
c ren 17 -> 17
c ren 18 -> 18
c ren 19 -> 19
c ren 20 -> 20
c ren 21 -> 21
c ren 22 -> 22
c ren 23 -> 23
c ren 24 -> 24
c ren 25 -> 25
c ren 26 -> 26
c ren 27 -> 27
c ren 28 -> 28
c ren 29 -> 29
c ren 30 -> 30
c ren 31 -> 31
c ren 32 -> 32
c ren 33 -> 33
c ren 34 -> 34
c ren 35 -> 35
c ren 36 -> 36
c ren 37 -> 37
c ren 38 -> 38
c ren 39 -> 39
c ren 40 -> 40
c ren 41 -> 41
c ren 42 -> 42
c ren 43 -> 43
c ren 44 -> 44
c ren 45 -> 45
c ren 46 -> 46
c ren 47 -> 47
c ren 48 -> 48
c ren 52 -> 49
c ren 63 -> 50
c ren 70 -> 51
c ren 74 -> 52
c ren 91 -> 53
c ren 106 -> 54
c ren 112 -> 55
c ren 123 -> 56
c ren 125 -> 57
c ren 128 -> 58
c ren 136 -> 59
c ren 139 -> 60
c ren 151 -> 61
c ren 155 -> 62
c ren 160 -> 63
c ren 164 -> 64
c ren 171 -> 65
c ren 173 -> 66
c ren 178 -> 67
c ren 184 -> 68
c ren 185 -> 69
c ren 186 -> 70
c ren 187 -> 71
c ren 188 -> 72
c ren 189 -> 73
c ren 190 -> 74
c ren 191 -> 75
c ren 192 -> 76
c ren 205 -> 77
c ren 207 -> 78
c ren 230 -> 79
c ren 279 -> 80
c ren 284 -> 81
c ren 287 -> 82
c ren 289 -> 83
c ren 299 -> 84
c ren 307 -> 85
c ren 311 -> 86
c ren 312 -> 87
c ren 313 -> 88
c ren 314 -> 89
c ren 315 -> 90
c ren 316 -> 91
c ren 317 -> 92
c ren 318 -> 93
c ren 319 -> 94
c ren 320 -> 95
c ren 321 -> 96
c ren 322 -> 97
c ren 323 -> 98
c ren 324 -> 99
p cnf 99 388
a 1 2 3 4 5 6 7 8 9 10 11 12 13 14 15 16 17 18 19 20 21 22 23 24 25 26 27 28 29 30 31 32 33 34 35 36 37 38 39 40 41 42 43 44 45 46 47 48 0
d 68 33 34 0
d 69 45 46 0
d 70 45 46 0
d 71 35 36 0
d 72 41 42 0
d 73 43 44 0
d 74 39 40 0
d 75 47 48 0
d 76 37 38 0
e 49 50 51 52 53 54 55 56 57 58 59 60 61 62 63 64 65 66 67 77 78 79 80 81 82 83 84 85 86 87 88 89 90 91 92 93 94 95 96 97 98 99 0
-11 12 -27 28 -44 49 -50 76 -98 0
-9 -11 12 -25 -27 28 49 -50 52 0
11 -27 44 -98 0
-25 -76 -79 0
-10 -49 0
26 -49 0
9 12 -27 -50 -79 0
-11 27 49 76 79 0
-9 -11 27 49 51 0
9 -25 -52 0
9 -27 -28 -50 -51 0
11 12 -25 -50 -79 0
-9 50 51 0
25 50 51 0
-25 -27 -28 -50 -79 0
-12 28 44 -98 0
9 12 -27 -50 -51 0
11 -25 -27 -50 -51 0
10 50 0
-26 50 0
9 -49 -51 0
-9 25 51 0
9 -25 -51 0
9 11 -27 -50 -79 0
-25 -49 -79 0
9 11 12 -50 -51 0
-12 27 28 49 76 79 0
-11 25 27 49 51 0
9 11 -27 -50 -51 0
9 -11 -12 25 -27 -28 49 -50 52 0
-11 -12 28 49 76 79 0
-9 25 79 0
50 -52 0
9 11 -12 25 27 -28 49 -50 52 0
9 11 12 -50 -79 0
12 -28 -52 0
9 -11 12 25 -27 28 49 -50 52 0
-12 25 27 28 49 51 0
-11 -12 25 28 49 51 0
9 11 -28 -50 -51 0
11 -27 -52 0
9 -76 -79 0
-11 -12 -27 -28 -44 49 -50 76 -98 0
-51 -83 -86 0
-52 54 59 63 -64 -65 -75 -86 0
51 52 -65 -66 -67 0
-3 19 59 -66 0
-5 -6 -7 -8 24 -65 0
5 6 7 -23 65 0
-7 23 -53 0
-7 -8 21 22 24 -53 -65 0
6 -21 -24 -53 65 0
5 -22 -24 -53 65 0
6 53 -54 65 0
6 7 -21 -23 65 0
6 8 -21 -24 -53 54 0
-5 -6 -7 -8 -22 -24 -54 0
5 -21 54 0
-6 -7 -8 21 24 -53 -65 0
5 7 -22 -23 65 0
5 6 8 -24 -53 54 0
7 53 0
-23 53 0
6 -7 8 21 22 24 -54 0
-6 21 22 -65 0
6 8 -54 65 0
-5 21 -65 0
-5 -6 -8 23 24 -65 0
-5 6 -7 8 22 24 -54 0
-6 -7 8 21 -22 24 -54 0
6 7 -21 -23 54 0
5 6 7 -23 54 0
-5 -6 22 -65 0
6 -7 -8 21 22 -24 -54 0
-5 -6 -7 8 -22 24 -53 -54 0
6 -21 -22 65 0
6 -24 -54 65 0
6 8 -21 -53 65 0
-5 6 -7 -8 22 -24 -53 -54 0
5 6 -24 -53 65 0
-5 -8 22 23 24 -53 -65 0
-5 21 -54 0
5 -21 65 0
5 7 -22 -23 54 0
6 -21 -22 54 0
6 -21 53 54 -65 0
-54 -65 -66 -67 0
57 82 0
-3 -4 -19 20 55 -56 68 80 0
3 -19 -81 0
3 4 19 20 55 -56 68 81 0
7 -21 -22 -23 65 0
-2 -55 0
18 -55 0
-2 18 -56 0
-55 -80 0
3 -57 -71 80 -82 0
-1 -3 19 55 -56 -57 58 0
-20 -56 -57 58 66 0
-1 3 -4 19 -20 55 -56 -59 0
-1 17 -57 0
1 -17 59 0
-3 -4 17 -19 20 55 -66 0
4 -80 0
-4 20 -81 0
56 -83 0
2 56 0
-18 56 0
1 57 0
-17 57 0
1 -17 66 0
56 -59 66 0
-3 -4 17 -20 55 -56 -59 0
-55 -57 -71 -82 0
4 -56 -57 58 66 0
3 -4 19 20 55 -56 68 80 0
-3 -4 -19 -20 55 -56 68 81 0
3 -19 59 -66 0
4 -20 -56 -57 58 59 0
-3 19 -56 -57 58 66 0
-1 -4 19 20 55 -66 0
56 -58 0
56 59 -66 0
4 -20 -81 0
3 -19 -80 0
57 -66 0
3 -19 -56 -57 66 0
-3 17 19 55 -56 -57 58 0
57 -58 0
-20 -80 0
-3 19 -56 -57 58 59 0
-57 -68 -83 0
-1 -3 -4 -19 -20 55 -56 -59 0
-58 -59 0
-58 -66 0
56 -80 0
-59 67 75 -86 0
-82 -83 0
-15 -60 0
31 -60 0
-15 31 -61 0
-60 -64 0
61 -85 0
-13 -14 -16 -30 -32 60 -61 -62 64 0
14 -30 -64 0
-1 4 19 20 55 -56 -59 0
14 -16 29 30 -32 60 -61 -62 64 0
-14 -16 29 -30 -32 60 -61 -62 64 0
-30 -32 -61 -62 -63 0
-13 -14 16 -30 32 60 -61 -62 64 0
13 -29 -64 0
29 30 61 63 0
-13 -14 30 63 0
-14 29 61 63 0
16 -78 0
-16 32 -85 0
15 61 0
-31 61 0
14 -77 0
-14 30 -64 0
13 62 0
-29 62 0
3 -58 0
-14 29 30 63 0
-30 -60 -62 -63 0
-13 -14 -16 32 60 63 0
14 -30 -62 -63 0
-16 29 30 32 60 63 0
-55 -58 0
-32 -78 0
-14 16 29 -30 32 60 -61 -62 64 0
61 -64 0
14 16 -61 -62 -63 0
-1 56 -66 0
62 63 0
3 4 17 19 20 55 -56 -59 0
13 -29 -63 0
16 -30 -61 -62 -63 0
-30 -77 0
-13 -16 30 32 60 63 0
16 -32 -64 0
-60 -78 0
14 -32 -61 -62 -63 0
56 -81 0
16 -32 -85 0
-14 30 74 77 0
62 -64 0
16 32 60 -61 72 74 85 0
-51 54 59 67 0
9 -27 -28 -50 -79 0
5 6 -22 54 0
-1 -3 -4 20 55 -66 0
57 -59 0
66 -83 -86 0
64 -83 -86 0
44 -49 -98 0
59 65 67 0
66 67 0
-65 73 -79 82 -84 0
52 67 75 -86 0
9 11 12 25 27 28 49 -50 52 0
51 -52 54 59 63 -64 -65 -66 83 -86 0
-51 67 75 -86 0
-54 67 75 -86 0
51 63 -65 -66 -67 0
-63 -83 -86 0
4 -20 59 -66 0
15 -31 60 0
-16 32 60 -61 72 74 78 0
-13 30 61 63 0
-13 29 -62 0
-74 -77 0
-13 14 16 30 32 60 -61 -62 64 0
-14 -16 29 32 60 63 0
-61 -62 -70 77 78 -83 0
61 70 72 74 -83 0
54 -62 -65 70 -72 73 77 79 -81 82 83 0
-60 -85 0
-72 -78 0
-74 -78 0
-13 -14 61 63 0
-16 32 -64 0
54 62 -65 -70 73 79 -81 82 83 0
54 -61 -62 -65 70 73 77 78 79 -81 82 83 0
54 -61 -62 -65 70 -73 77 78 -79 -81 82 83 0
54 -65 -70 -73 -77 -79 -81 82 83 0
-45 62 -99 0
62 70 -83 0
54 61 -65 -70 72 -73 74 -79 -81 82 83 0
54 -65 -70 73 -77 79 -81 82 83 0
54 62 -65 -70 -73 -79 -81 82 83 0
-45 -77 -99 0
-45 61 72 74 -99 0
70 -78 -83 0
9 11 -28 -50 -79 0
-9 -12 27 28 49 51 0
10 -26 49 0
-10 26 -50 0
-9 11 12 -25 27 28 49 -50 52 0
-25 -49 -51 0
50 76 79 0
8 -21 -22 -53 65 0
54 -65 -70 73 -78 79 -81 82 83 0
-11 27 -52 0
54 -65 -70 -73 -78 -79 -81 82 83 0
-45 -78 -99 0
9 -49 -79 0
-12 28 -52 0
45 -62 -74 -99 0
54 -62 -65 70 73 -74 79 -81 82 83 0
-9 25 -52 0
-5 -6 -8 -22 23 -24 -54 0
11 -25 -28 -50 -79 0
54 -62 -65 70 -72 -73 77 -79 -81 82 83 0
-62 -70 -74 -83 0
54 -62 -65 70 -73 -74 -79 -81 82 83 0
-73 79 -83 0
73 -79 -83 0
-6 -8 21 23 24 -53 -65 0
-6 -7 -8 21 -22 -24 -54 0
5 6 53 54 -65 0
-9 -11 -12 -25 -27 -28 49 -50 52 0
-9 11 -12 -25 27 -28 49 -50 52 0
5 6 8 -53 65 0
-5 6 22 53 -54 0
5 6 -22 65 0
6 21 22 53 -54 0
-9 -11 -12 28 49 51 0
-4 17 19 -20 55 -56 -59 0
2 -18 55 0
-3 4 17 -19 20 55 -59 0
-57 80 81 -83 0
68 71 82 0
-6 21 -22 53 -54 0
-55 -57 66 0
-3 19 55 -56 68 82 0
3 -4 17 19 20 55 -66 0
-3 4 -19 20 55 -56 68 81 0
-55 -81 0
-68 -80 0
5 -22 53 54 -65 0
3 -4 19 -20 55 -56 68 81 0
-80 82 0
-19 -57 -71 80 -82 0
-57 -68 -82 0
81 82 -84 0
-1 -3 4 -19 20 55 -56 -59 0
3 -19 -56 -57 59 0
17 56 -66 0
-55 -57 59 0
-68 -81 0
-19 -58 0
65 -81 84 0
54 73 79 -81 84 0
45 -61 -62 77 78 -99 0
54 61 -65 -70 72 73 74 79 -81 82 83 0
11 -12 27 -28 -44 49 -50 76 -98 0
-65 -69 -73 82 -84 0
-65 -73 79 82 -84 0
-65 -69 -79 82 -84 0
65 -83 0
-54 -83 0
65 67 75 -86 0
54 69 -73 -79 -81 84 0
-55 -71 -83 0
-54 -65 82 -84 0
56 -57 -71 -82 0
-82 84 0
-49 -52 0
12 -25 -27 -50 -79 0
11 -25 -27 -50 -79 0
-11 27 44 -98 0
-22 -24 -54 65 0
14 16 29 30 32 60 -61 -62 64 0
14 -60 -61 -62 -63 0
-16 -32 60 -61 72 74 85 0
61 -78 0
-72 -85 0
-74 -85 0
-13 14 -16 30 -32 60 -61 -62 64 0
64 67 75 -86 0
8 -22 -54 65 0
-63 67 75 -86 0
-59 -66 -67 0
-59 -83 -86 0
67 -84 -86 0
-67 84 -86 0
-67 -75 -86 0
-1 -33 -87 0
-5 -6 -22 53 -54 0
5 8 -22 -53 65 0
1 33 -87 0
-17 -34 -88 0
-5 -7 -8 22 24 -53 -65 0
17 34 -88 0
-2 -35 -89 0
8 -21 -22 -24 -53 54 0
-21 -22 -24 -53 65 0
2 35 -89 0
-18 -36 -90 0
12 -25 -27 -50 -51 0
6 -8 21 22 23 -24 -54 0
18 36 -90 0
-9 -37 -91 0
11 -25 -28 -50 -51 0
-6 -8 21 -22 23 -24 -53 -54 0
9 37 -91 0
-25 -38 -92 0
-21 -22 53 54 -65 0
-5 6 8 22 23 24 -53 -54 0
25 38 -92 0
-13 -39 -93 0
-5 -6 8 -22 23 24 -53 -54 0
-6 8 21 -22 23 24 -54 0
13 39 -93 0
-29 -40 -94 0
6 8 21 22 23 24 -53 -54 0
-8 21 22 23 24 -53 -65 0
29 40 -94 0
-14 -41 -95 0
-5 6 -8 22 23 -24 -53 -54 0
14 41 -95 0
-30 -42 -96 0
11 12 -25 -50 -51 0
5 8 -22 -24 -53 54 0
30 42 -96 0
-43 -79 -97 0
-22 53 -54 65 0
43 79 -97 0
44 50 -98 0
-25 -27 -28 -50 -51 0
12 -28 44 -98 0
7 -21 -22 -23 54 0
70 -77 -83 0
45 -62 -72 77 -99 0
-62 -70 -72 77 -83 0
-46 -47 48 83 -84 -85 86 87 88 89 90 91 92 93 94 95 96 97 98 99 0
46 47 48 83 84 85 86 87 88 89 90 91 92 93 94 95 96 97 98 99 0
-46 47 -48 -83 84 -85 86 87 88 89 90 91 92 93 94 95 96 97 98 99 0
-46 -47 -48 -83 -84 -85 86 87 88 89 90 91 92 93 94 95 96 97 98 99 0
46 -47 -48 -83 -84 85 86 87 88 89 90 91 92 93 94 95 96 97 98 99 0
46 -47 48 83 -84 85 86 87 88 89 90 91 92 93 94 95 96 97 98 99 0
-46 47 48 83 84 -85 86 87 88 89 90 91 92 93 94 95 96 97 98 99 0
44 -76 -98 0
-52 54 59 -63 67 0
11 12 27 28 -44 49 -50 76 -98 0
46 47 -48 -83 84 85 86 87 88 89 90 91 92 93 94 95 96 97 98 99 0
52 -83 -86 0
